
Value of objective function: 0

Actual values of the variables:
pL1_div_from_law                0
comp_pos0                       0
comp_neg0                       0
comp_pos1                       0
comp_neg1                       0
comp_pos2                       0
comp_neg2                       0
comp_pos3                       0
comp_neg3                       0
comp_pos4                       0
comp_neg4                       0
comp_pos5                       0
comp_neg5                       0
comp_pos6                       0
comp_neg6                       0
comp_pos7                       0
comp_neg7                       0
comp_pos8                       0
comp_neg8                       0
comp_pos9                       0
comp_neg9                       0
comp_pos10                      0
comp_neg10                      0
comp_pos11                      0
comp_neg11                      0
comp_pos12                      0
comp_neg12                      0
comp_pos13                      0
comp_neg13                      0
z_c0_t0               1.32138e+10
p0_c0_t0              3.79171e+09
p1_c0_t0              1.39267e+09
p2_c0_t0              7.79387e+09
p3_c0_t0              2.35585e+08
diff0                           0
normdiff0                       0
z_c0_t1               1.47752e+10
p0_c0_t1              3.32774e+09
p1_c0_t1              1.56177e+09
p2_c0_t1              9.36805e+09
p3_c0_t1              5.17643e+08
diff1                           0
normdiff1                       0
z_c1_t0               1.65566e+10
p0_c1_t0              3.87202e+09
p1_c1_t0              1.80736e+09
p2_c1_t0              1.07069e+10
p3_c1_t0              1.70339e+08
diff2                           0
normdiff2                       0
z_c1_t1               1.94959e+10
p0_c1_t1              3.94125e+09
p1_c1_t1               2.5712e+09
p2_c1_t1              1.26783e+10
p3_c1_t1              3.05108e+08
diff3                           0
normdiff3                       0
z_c2_t0               7.24754e+09
p0_c2_t0              1.30801e+09
p1_c2_t0              7.30219e+08
p2_c2_t0              5.05874e+09
p3_c2_t0              1.50576e+08
diff4                           0
normdiff4                       0
z_c2_t1               7.97123e+09
p0_c2_t1              1.07245e+09
p1_c2_t1              8.53531e+08
p2_c2_t1              5.83842e+09
p3_c2_t1              2.06823e+08
diff5                           0
normdiff5                       0
z_c3_t0               1.22612e+10
p0_c3_t0               2.3665e+09
p1_c3_t0              1.24839e+09
p2_c3_t0              8.26014e+09
p3_c3_t0              3.86144e+08
diff6                           0
normdiff6                       0
z_c3_t1               1.42798e+10
p0_c3_t1              2.70351e+09
p1_c3_t1              1.27851e+09
p2_c3_t1              9.40517e+09
p3_c3_t1              8.92578e+08
diff7                           0
normdiff7                       0
z_c4_t0               7.97197e+09
p0_c4_t0              1.04452e+09
p1_c4_t0              1.39696e+09
p2_c4_t0               5.4096e+09
p3_c4_t0              1.20886e+08
diff8                           0
normdiff8                       0
z_c4_t1                8.9819e+09
p0_c4_t1              1.09088e+09
p1_c4_t1               1.2861e+09
p2_c4_t1              6.51936e+09
p3_c4_t1              8.55646e+07
diff9                           0
normdiff9                       0
z_c5_t0               1.00642e+10
p0_c5_t0              1.84197e+09
p1_c5_t0              1.16705e+09
p2_c5_t0              7.00482e+09
p3_c5_t0              5.03208e+07
diff10                          0
normdiff10                      0
z_c5_t1                1.2016e+10
p0_c5_t1               1.3591e+09
p1_c5_t1              1.16755e+09
p2_c5_t1              9.34853e+09
p3_c5_t1              1.40825e+08
diff11                          0
normdiff11                      0
z_c6_t0               1.81204e+10
p0_c6_t0              3.36328e+09
p1_c6_t0              1.48912e+09
p2_c6_t0              1.31037e+10
p3_c6_t0              1.64267e+08
diff12                          0
normdiff12                      0
z_c6_t1               2.06345e+10
p0_c6_t1              3.65261e+09
p1_c6_t1               1.3649e+09
p2_c6_t1              1.54974e+10
p3_c6_t1              1.19616e+08
diff13                          0
normdiff13                      0
